515,919
912,-48
829,429
672,378
196,249
744,343
491,780
148,490
708,459
773,121
885,6
681,136
996,177
1006,457
830,112
782,719
681,616
761,446
1020,652
1135,637
589,121
874,140
732,81
1006,457
977,702
468,514
639,140
1071,406
406,131
1045,670
